S = 5;
start = [|0,0,0,0,1,0,0,19,0,0,0,0,0,22,0,0,0,0,0,0,18,0,0,23,6|
9,10,18,17,0,0,0,0,0,0,0,0,0,0,6,0,19,0,0,2,0,0,0,0,0|
0,0,0,13,0,0,6,0,0,21,0,5,0,3,0,0,0,0,0,0,0,0,0,10,0|
0,0,0,0,0,0,0,4,24,0,10,0,0,11,0,0,0,0,0,0,0,0,0,0,2|
0,21,0,0,0,0,2,15,0,0,0,0,16,0,0,0,0,0,0,0,0,0,0,0,0|
6,0,0,0,0,0,0,25,7,0,0,4,22,0,0,0,0,0,0,0,0,0,12,0,17|
0,0,0,0,0,0,0,0,0,0,0,0,0,0,0,0,0,0,0,0,0,10,0,0,0|
0,0,0,0,19,0,0,0,15,0,0,0,0,0,0,0,25,13,0,22,0,0,0,0,0|
0,0,0,0,0,0,0,0,0,0,0,0,0,0,0,0,16,0,0,0,0,0,0,0,0|
0,0,0,0,0,19,13,0,0,0,0,18,0,0,23,12,24,0,0,0,0,0,0,0,7|
0,0,0,20,0,0,0,0,11,0,4,0,0,0,0,6,0,15,0,7,1,0,0,0,0|
0,0,0,0,0,20,0,0,0,0,19,0,0,0,15,0,0,0,0,0,2,0,0,0,0|
0,0,0,0,0,0,0,0,0,0,0,1,0,0,0,0,0,0,18,0,0,0,0,0,0|
1,24,0,0,0,0,0,0,18,0,0,14,0,0,7,0,0,19,0,23,0,4,0,0,3|
0,0,12,0,0,0,0,0,13,0,0,0,0,0,0,0,0,0,0,0,21,0,0,0,0|
0,0,0,0,5,0,20,6,0,0,0,13,0,0,10,0,0,0,0,0,0,0,0,0,0|
0,0,0,0,16,21,0,0,0,0,12,0,0,0,0,0,0,0,24,0,0,11,0,0,0|
0,0,0,0,13,16,0,0,0,0,0,0,7,0,0,0,0,0,0,5,0,0,23,0,0|
0,9,0,0,0,0,0,13,0,0,17,0,0,0,0,0,0,0,0,0,0,0,0,0,19|
0,0,0,0,15,0,0,0,0,0,23,0,0,20,0,3,10,0,0,14,7,0,0,0,0|
0,0,0,0,23,11,0,0,0,0,0,0,9,0,0,0,0,0,0,0,0,0,0,19,0|
0,19,0,0,0,0,0,0,0,14,0,0,0,0,0,0,0,0,0,24,0,7,0,0,0|
0,0,0,0,0,0,0,0,0,5,16,0,0,0,0,0,0,0,10,0,0,0,0,0,0|
0,0,7,0,0,0,0,16,3,0,0,0,0,0,0,0,13,0,0,0,9,0,0,0,0|
0,0,0,0,0,0,0,0,0,0,0,10,0,0,0,9,0,0,0,21,0,0,17,0,4|];